(set-logic QF_S)
(declare-fun x () String)
(declare-fun y () String)
(declare-fun z () Int)
(assert (not (= (str.replace "B" (str.substr "B" 0 z) "B") (str.replace "B" (str.substr "A" 0 z) "B"))))
(check-sat)
